1 -1 2 0
1 -1 3 0
1 4 -5 0
1 -4 6 0
1 -4 -7 0
1 4 -3 0
1 5 -8 0
1 -5 -9 0
1 -5 -10 0
1 5 -4 0
1 5 -2 0
1 7 11 0
1 -7 -1 0
1 7 12 0
1 7 13 0
1 7 -4 0
1 -3 13 0
1 -6 -1 0
1 -6 14 0
1 -6 15 0
1 2 -16 0
1 2 -6 0
1 -2 -17 0
1 13 18 0
1 13 -10 0
1 -13 17 0
1 18 9 0
1 -18 -10 0
1 18 -13 0
1 18 -3 0
1 12 8 0
1 -12 19 0
1 -12 7 0
1 12 9 0
1 12 -20 0
1 12 -3 0
1 19 -8 0
1 19 -21 0
1 -19 16 0
1 19 -7 0
1 19 -22 0
1 19 -3 0
1 -10 -23 0
1 10 21 0
1 -10 -24 0
1 10 -25 0
1 10 13 0
1 21 23 0
1 21 26 0
1 -21 19 0
1 21 18 0
1 21 -5 0
1 21 4 0
1 21 27 0
1 9 -28 0
1 9 29 0
1 9 -30 0
1 -9 12 0
1 -9 -13 0
1 -8 -28 0
1 8 18 0
1 8 5 0
1 8 9 0
1 8 -14 0
1 8 -12 0
1 8 13 0
1 -25 26 0
1 -25 -21 0
1 25 31 0
1 25 -32 0
1 -25 14 0
1 -26 -25 0
1 -26 10 0
1 26 -20 0
1 -26 -22 0
1 24 -23 0
1 -24 21 0
1 -24 31 0
1 -24 22 0
1 23 28 0
1 23 31 0
1 22 23 0
1 22 -19 0
1 22 -24 0
1 -22 -33 0
1 32 23 0
1 32 34 0
1 -32 -35 0
1 -32 -25 0
1 20 -23 0
1 20 31 0
1 -20 -29 0
1 20 36 0
1 20 37 0
1 -31 -19 0
1 31 38 0
1 31 35 0
1 -31 29 0
1 31 -20 0
1 31 33 0
1 39 40 0
1 -39 15 0
1 -41 -42 0
1 41 -39 0
1 -43 44 0
1 -43 -45 0
1 -43 -40 0
1 -43 -46 0
1 -43 -47 0
1 45 -44 0
1 45 42 0
1 45 -48 0
1 -45 -40 0
1 45 49 0
1 -45 -43 0
1 42 16 0
1 -42 -50 0
1 -42 41 0
1 -42 49 0
1 49 -42 0
1 -49 51 0
1 -44 -52 0
1 44 43 0
1 44 39 0
1 -40 -44 0
1 40 -43 0
1 17 -53 0
1 -17 51 0
1 -17 -6 0
1 17 13 0
1 17 2 0
1 -51 -42 0
1 51 -53 0
1 -51 -47 0
1 -51 -2 0
1 54 -16 0
1 -54 48 0
1 54 55 0
1 -54 6 0
1 -54 56 0
1 54 2 0
1 16 19 0
1 16 49 0
1 16 -54 0
1 -48 47 0
1 48 -11 0
1 -48 -16 0
1 48 57 0
1 -48 -58 0
1 48 -14 0
1 48 54 0
1 -48 17 0
1 47 -28 0
1 47 -45 0
1 -47 -58 0
1 47 14 0
1 47 43 0
1 -53 59 0
1 53 -58 0
1 -53 -46 0
1 -53 -54 0
1 -53 -43 0
1 -46 -59 0
1 46 54 0
1 -46 -17 0
1 14 -48 0
1 14 -55 0
1 -14 9 0
1 -14 -56 0
1 14 -2 0
1 -14 3 0
1 11 -60 0
1 -11 -55 0
1 11 14 0
1 -11 61 0
1 11 56 0
1 62 -8 0
1 -62 28 0
1 62 48 0
1 62 -9 0
1 -62 -47 0
1 -62 56 0
1 -62 63 0
1 -28 64 0
1 -28 8 0
1 -28 -48 0
1 -28 -60 0
1 -28 -9 0
1 -28 -62 0
1 -28 -61 0
1 -55 -16 0
1 -55 29 0
1 -55 -62 0
1 -55 14 0
1 -56 28 0
1 56 -11 0
1 -56 65 0
1 -56 54 0
1 56 66 0
1 56 27 0
1 -60 -28 0
1 -60 -65 0
1 -60 -58 0
1 -61 11 0
1 -61 -65 0
1 -61 -58 0
1 61 14 0
1 61 -54 0
1 -61 67 0
1 -61 -66 0
1 61 -68 0
1 -29 -64 0
1 29 -8 0
1 -29 -69 0
1 29 70 0
1 -29 20 0
1 29 56 0
1 27 59 0
1 -27 -64 0
1 27 69 0
1 -27 70 0
1 -27 -9 0
1 27 63 0
1 71 -64 0
1 -71 -72 0
1 -71 73 0
1 71 -20 0
1 -37 -64 0
1 37 -72 0
1 37 -71 0
1 -37 69 0
1 -37 -30 0
1 37 -74 0
1 37 20 0
1 37 -68 0
1 -70 -75 0
1 -70 -29 0
1 70 7 0
1 64 75 0
1 64 -76 0
1 64 -29 0
1 -64 -62 0
1 -64 -77 0
1 -64 33 0
1 69 65 0
1 -69 -62 0
1 69 -66 0
1 63 78 0
1 -63 65 0
1 -63 62 0
1 -63 2 0
1 -35 31 0
1 35 -65 0
1 -35 -70 0
1 35 74 0
1 35 20 0
1 35 -33 0
1 -33 64 0
1 -33 79 0
1 -33 -35 0
1 -33 70 0
1 -33 20 0
1 76 -79 0
1 76 38 0
1 -76 -80 0
1 -76 30 0
1 76 74 0
1 -76 -36 0
1 -80 64 0
1 80 -72 0
1 74 72 0
1 -74 35 0
1 74 -71 0
1 74 10 0
1 72 -21 0
1 72 81 0
1 -72 -76 0
1 72 -35 0
1 72 71 0
1 -72 -74 0
1 -72 80 0
1 -30 -79 0
1 30 -82 0
1 30 -75 0
1 30 71 0
1 30 83 0
1 -30 77 0
1 30 37 0
1 -79 -8 0
1 -79 75 0
1 -79 -71 0
1 -79 30 0
1 79 83 0
1 -79 -77 0
1 79 -80 0
1 84 -72 0
1 84 -34 0
1 84 -74 0
1 84 85 0
1 84 -86 0
1 85 -38 0
1 85 -34 0
1 85 -77 0
1 -85 86 0
1 81 -38 0
1 -81 87 0
1 -87 38 0
1 -87 36 0
1 87 -86 0
1 86 -84 0
1 86 -34 0
1 86 76 0
1 34 -81 0
1 34 76 0
1 -34 -85 0
1 -34 86 0
1 -36 -84 0
1 36 76 0
1 -36 -80 0
1 -38 31 0
1 38 76 0
1 38 -36 0
1 -38 -80 0
1 -58 59 0
1 -58 53 0
1 58 88 0
1 -58 -89 0
1 58 47 0
1 -59 52 0
1 -59 50 0
1 -59 58 0
1 59 88 0
1 59 89 0
1 -73 -52 0
1 -73 -57 0
1 -73 60 0
1 -73 -71 0
1 73 -90 0
1 -68 52 0
1 -68 88 0
1 -68 89 0
1 68 -90 0
1 -68 61 0
1 68 -37 0
1 50 42 0
1 50 -78 0
1 50 91 0
1 -50 -66 0
1 89 -50 0
1 -89 73 0
1 89 -49 0
1 -89 -68 0
1 -52 88 0
1 -52 68 0
1 -88 73 0
1 88 -40 0
1 65 92 0
1 -65 57 0
1 -65 60 0
1 -65 -69 0
1 -65 -93 0
1 -65 90 0
1 -65 61 0
1 65 66 0
1 -65 -63 0
1 66 -57 0
1 -66 60 0
1 66 55 0
1 -66 -69 0
1 66 93 0
1 -66 -33 0
1 66 63 0
1 -78 -50 0
1 -78 -67 0
1 78 -92 0
1 -78 57 0
1 78 69 0
1 -78 91 0
1 78 63 0
1 91 50 0
1 91 -90 0
1 91 67 0
1 -91 94 0
1 -57 82 0
1 -57 -48 0
1 -57 -65 0
1 -57 -83 0
1 57 -77 0
1 57 68 0
1 -90 57 0
1 -90 83 0
1 90 -47 0
1 -90 91 0
1 90 68 0
1 -92 -78 0
1 93 65 0
1 93 73 0
1 -93 46 0
1 93 66 0
1 -93 -68 0
1 75 -79 0
1 -75 90 0
1 75 69 0
1 75 77 0
1 75 67 0
1 75 63 0
1 77 64 0
1 77 79 0
1 -77 75 0
1 77 -57 0
1 77 30 0
1 -77 85 0
1 -77 90 0
1 -82 -79 0
1 -82 -81 0
1 -82 -57 0
1 82 -83 0
1 82 -94 0
1 -83 -57 0
1 -83 -30 0
1 -95 75 0
1 95 55 0
1 95 -83 0
1 -95 -94 0
1 94 83 0
1 -94 77 0
1 -94 56 0
1 96 82 0
1 -96 -75 0
1 -96 -78 0
1 96 -91 0
1 67 -82 0
1 67 75 0
1 67 -78 0
1 -67 -77 0
1 -67 61 0
